p cnf 52 147
a 14 15 0
e 1 2 3 4 5 6 7 8 9 10 11 12 13 16 17 18 19 20 21 22 23 24 25 26 27 28 29 30 31 32 33 34 35 36 37 38 39 40 41 42 43 44 45 46 47 48 49 50 51 52 0
4 2 0
4 -3 0
-2 3 -4 0
1 -4 -5 0
-1 4 -5 0
1 4 5 0
-1 -4 5 0
-6 7 -8 0
6 -7 -8 0
-6 -7 8 0
6 7 8 0
-5 -8 -9 0
5 8 -9 0
-5 8 9 0
5 -8 9 0
11 -10 0
11 -5 0
10 5 -11 0
7 10 -12 0
-7 -10 -12 0
7 -10 12 0
-7 10 12 0
14 12 0
14 13 0
-12 -13 -14 0
15 -10 0
15 -7 0
10 7 -15 0
-16 -6 0
-16 -15 0
6 15 16 0
-17 -16 0
-17 8 0
16 -8 17 0
19 6 0
19 18 0
-6 -18 -19 0
20 -12 0
20 -19 0
12 19 -20 0
21 17 0
21 20 0
-17 -20 -21 0
-22 12 0
-22 -16 0
-12 16 22 0
19 -22 -23 0
-19 22 -23 0
19 22 23 0
-19 -22 23 0
24 -1 0
24 23 0
1 -23 -24 0
25 -21 0
25 -24 0
21 24 -25 0
-26 14 0
-26 -25 0
-14 25 26 0
27 11 0
27 -26 0
-11 26 -27 0
-28 9 0
-28 27 0
-9 -27 28 0
29 6 0
29 3 0
-6 -3 -29 0
30 29 0
30 -5 0
-29 5 -30 0
-32 -8 0
-32 -31 0
8 31 32 0
33 -30 0
33 -32 0
30 32 -33 0
34 18 0
34 15 0
-18 -15 -34 0
-35 -34 0
-35 29 0
34 -29 35 0
-36 33 0
-36 -35 0
-33 35 36 0
37 -15 0
37 6 0
15 -6 -37 0
38 15 0
38 -29 0
-15 29 -38 0
-39 12 0
-39 -38 0
-12 38 39 0
40 7 0
40 5 0
-7 -5 -40 0
-39 -40 -41 0
39 40 -41 0
-39 40 41 0
39 -40 41 0
-42 -37 0
-42 -41 0
37 41 42 0
-43 22 0
-43 -16 0
-22 16 43 0
-44 42 0
-44 -43 0
-42 43 44 0
-45 1 0
-45 -2 0
-1 2 45 0
47 46 0
47 -2 0
-46 2 -47 0
48 22 0
48 47 0
-22 -47 -48 0
-49 -45 0
-49 -48 0
45 48 49 0
50 44 0
50 -49 0
-44 49 -50 0
-36 -50 -51 0
36 50 -51 0
-36 50 51 0
36 -50 51 0
52 28 0
52 51 0
-28 -51 -52 0
37 43 -39 -9 -8 0
21 33 19 -52 0
-2 44 -13 0
-10 4 24 28 -52 42 38 19 0
-37 -19 -34 -41 21 0
-33 -9 6 11 -48 0
42 -27 15 -46 0
51 -44 33 -7 5 8 -2 0
-14 -25 -43 -3 -40 -44 4 -45 0
45 27 11 -8 -9 49 40 0
-15 -8 -18 -45 -16 7 0
-52 5 -39 44 20 27 -50 -48 0
-21 -5 -28 0
52 0
